p cnf 16 50
c p weight -5 1 0
c p weight 5 -1 0
c p weight 9 6.12323399573676603586882014729198302312846062338790031898128063403419218957424163818359375E-17 0
c p weight -9 1 0
c p weight 10 1 0
c p weight -10 1 0
c p weight -7 1 0
c p weight 7 -1 0
c p weight -11 1 0
c p weight 11 -1 0
c p weight -13 1 0
c p weight 13 -1 0
c p weight 16 0.5 0
c p weight -16 1 0
16 0
-3 0
-1 0
-5 3 0
-5 4 0
5 -3 -4 0
6 3 -4 0
6 -3 4 0
-6 3 4 0
-6 -3 -4 0
-7 8 0
-7 6 0
-7 -3 0
7 -8 3 -6 0
8 -3 6 0
-8 3 6 0
-9 6 0
8 -9 -3 0
-8 -9 3 0
8 9 3 -6 0
-8 9 -3 -6 0
-10 6 0
8 -10 3 0
-8 -10 -3 0
8 10 -3 -6 0
-8 10 3 -6 0
-11 8 0
-11 6 0
11 -8 -6 0
12 8 -6 0
12 -8 6 0
-12 8 6 0
-12 -8 -6 0
-13 8 0
-13 2 0
-13 1 -12 0
-13 -1 12 0
13 -8 1 12 -2 0
13 -8 -1 -12 -2 0
15 8 -1 0
15 -8 1 0
-15 8 1 0
-15 -8 -1 0
14 12 -2 0
14 -12 2 0
-14 12 2 0
-14 -12 -2 0
-15 0
-8 0
-14 0
